letting n =  10
letting blocks =  [[1, 4], [1, 5], [2, 1], [2, 4], [3, 10], [4, 3], [4, 4], [4, 6], [4, 10], [5, 4], [5, 9], [6, 7], [7, 6], [7, 10], [8, 3], [8, 7], [9, 8], [10, 1], [10, 8], [10, 10]]
